p edge 73 172
e 1 4
e 1 11
e 1 13
e 1 17
e 1 22
e 1 28
e 1 32
e 1 46
e 1 59
e 2 4
e 2 11
e 2 13
e 2 19
e 2 22
e 2 30
e 2 39
e 2 43
e 2 44
e 2 61
e 3 5
e 3 6
e 3 7
e 3 8
e 3 16
e 3 23
e 3 50
e 3 65
e 4 12
e 4 15
e 4 17
e 4 19
e 4 22
e 4 32
e 4 46
e 4 59
e 4 60
e 4 72
e 5 10
e 5 14
e 5 21
e 5 24
e 5 26
e 5 31
e 5 55
e 5 60
e 6 8
e 6 13
e 6 41
e 6 45
e 6 47
e 7 13
e 7 18
e 7 31
e 7 51
e 8 9
e 8 13
e 8 23
e 8 41
e 8 47
e 8 50
e 9 16
e 9 37
e 9 40
e 9 71
e 10 14
e 10 58
e 11 13
e 11 24
e 11 37
e 11 45
e 12 15
e 12 29
e 12 34
e 12 46
e 12 56
e 12 63
e 13 16
e 13 18
e 13 31
e 13 33
e 13 41
e 13 51
e 14 21
e 14 24
e 14 26
e 14 31
e 14 55
e 15 26
e 15 33
e 15 41
e 15 46
e 15 51
e 15 54
e 15 55
e 15 69
e 15 70
e 16 33
e 17 22
e 17 32
e 17 59
e 18 31
e 18 47
e 18 51
e 18 62
e 19 22
e 19 23
e 19 42
e 19 49
e 20 36
e 21 24
e 21 26
e 21 29
e 21 31
e 21 56
e 21 64
e 22 28
e 22 32
e 23 50
e 23 52
e 23 65
e 24 26
e 24 31
e 24 41
e 25 68
e 26 30
e 26 31
e 26 69
e 26 73
e 27 35
e 27 42
e 27 49
e 28 29
e 28 32
e 28 34
e 28 48
e 28 53
e 29 34
e 29 45
e 29 56
e 29 64
e 30 69
e 30 73
e 31 51
e 32 53
e 32 59
e 33 47
e 33 51
e 33 54
e 35 42
e 35 49
e 35 57
e 36 38
e 38 52
e 38 59
e 39 44
e 39 61
e 42 49
e 42 57
e 44 50
e 44 61
e 47 62
e 48 53
e 49 57
e 51 54
e 54 55
e 54 70
e 55 70
e 56 63
e 56 64
e 60 72
e 66 67
e 69 73
